p cnf 18 108
-3 0
-4 0
-5 0
-6 0
-7 0
-8 0
-4  5  6  7 -8 -1 -9 0
-4  5  6  7 -8 -1 -10 0
-4  5  6  7 -8 -1 -11 0
-4  5  6  7 -8 -1 -12 0
-4  5  6  7 -8 -1 -13 0
 4  5  6  7  8 -1 -9 0
 4  5  6  7  8 -1 -10 0
 4  5  6  7  8 -1 -11 0
 4  5  6  7  8 -1 -12 0
 4  5  6  7  8 -1  13 0
 4  5  6  7 -8 -1 3 0
 4  5  6  7 -8  1 -9 0
 4  5  6  7 -8  1 -10 0
 4  5  6  7 -8  1 -11 0
 4  5  6  7 -8  1 -12 0
 4  5  6  7 -8  1 -13 0
 4  5  6  7  8  1  9 0
 4  5  6  7  8  1 -10 0
 4  5  6  7  8  1 -11 0
 4  5  6  7  8  1 -12 0
 4  5  6  7  8  1  13 0
-4  5  6  7 -8  1 3 0
-4  5  6  7  8  0
 4  5  6 -7  8  0
-4  5  6 -7  8  0
 4  5  6 -7 -8  0
-4  5  6 -7 -8  0
 4  5 -6  7  8  0
-4  5 -6  7  8  0
 4  5 -6  7 -8  0
-4  5 -6  7 -8  0
 4  5 -6 -7  8  0
-4  5 -6 -7  8  0
 4  5 -6 -7 -8  0
-4  5 -6 -7 -8  0
 4 -5  6  7  8  0
-4 -5  6  7  8  0
 4 -5  6  7 -8  0
-4 -5  6  7 -8  0
 4 -5  6 -7  8  0
-4 -5  6 -7  8  0
 4 -5  6 -7 -8  0
-4 -5  6 -7 -8  0
 4 -5 -6  7  8  0
-4 -5 -6  7  8  0
 4 -5 -6  7 -8  0
-4 -5 -6  7 -8  0
 4 -5 -6 -7  8  0
-4 -5 -6 -7  8  0
 4 -5 -6 -7 -8  0
-4 -5 -6 -7 -8  0
-9  10  11  12 -13 -2 -14 0
-9  10  11  12 -13 -2 -15 0
-9  10  11  12 -13 -2 -16 0
-9  10  11  12 -13 -2 -17 0
-9  10  11  12 -13 -2 -18 0
 9  10  11  12  13 -2 -14 0
 9  10  11  12  13 -2 -15 0
 9  10  11  12  13 -2 -16 0
 9  10  11  12  13 -2 -17 0
 9  10  11  12  13 -2  18 0
 9  10  11  12 -13 -2 3 0
 9  10  11  12 -13  2 -14 0
 9  10  11  12 -13  2 -15 0
 9  10  11  12 -13  2 -16 0
 9  10  11  12 -13  2 -17 0
 9  10  11  12 -13  2 -18 0
 9  10  11  12  13  2  14 0
 9  10  11  12  13  2 -15 0
 9  10  11  12  13  2 -16 0
 9  10  11  12  13  2 -17 0
 9  10  11  12  13  2  18 0
-9  10  11  12 -13  2 3 0
-9  10  11  12  13  0
 9  10  11 -12  13  0
-9  10  11 -12  13  0
 9  10  11 -12 -13  0
-9  10  11 -12 -13  0
 9  10 -11  12  13  0
-9  10 -11  12  13  0
 9  10 -11  12 -13  0
-9  10 -11  12 -13  0
 9  10 -11 -12  13  0
-9  10 -11 -12  13  0
 9  10 -11 -12 -13  0
-9  10 -11 -12 -13  0
 9 -10  11  12  13  0
-9 -10  11  12  13  0
 9 -10  11  12 -13  0
-9 -10  11  12 -13  0
 9 -10  11 -12  13  0
-9 -10  11 -12  13  0
 9 -10  11 -12 -13  0
-9 -10  11 -12 -13  0
 9 -10 -11  12  13  0
-9 -10 -11  12  13  0
 9 -10 -11  12 -13  0
-9 -10 -11  12 -13  0
 9 -10 -11 -12  13  0
-9 -10 -11 -12  13  0
 9 -10 -11 -12 -13  0
-9 -10 -11 -12 -13  0
